6736
22,125,149,62,3,113,10,94,88,121,79,59,16,111,105,33,126,52,93,124,35,96,89,8,7,84,30,63,48,73,76,34,87,1,98,103,82,95,107,5,100,143,97,146,56,26,75,18,142,85,65,132,137,70,135,50,55,58,86,29,108,102,114,99,19,2,37,6,28,9,42,120,47,139,40,53,12,24,118,127,69,36,61,11,148,130,17,66,60,140,117,57,39,41,101,116,43,109,51,20,110,81,25,141,83,90,46,92,54,138,134,67,131,32,38,23,49,147,144,129,27,31,123,74,13,106,91,119,68,128,71,45,4,104,150,115,44,64,112,136,145,72,80,14,122,77,133,15,78,21,22
